************************************************************************
file with basedata            : mm3_.bas
initial value random generator: 798277178
************************************************************************
projects                      :  1
jobs (incl. supersource/sink ):  12
horizon                       :  76
RESOURCES
  - renewable                 :  2   R
  - nonrenewable              :  2   N
  - doubly constrained        :  0   D
************************************************************************
PROJECT INFORMATION:
pronr.  #jobs rel.date duedate tardcost  MPM-Time
    1     10      0       14        2       14
************************************************************************
PRECEDENCE RELATIONS:
jobnr.    #modes  #successors   successors
   0        1          3           1   2   3
   1        3          1           4
   2        3          3           5   6   7
   3        3          1           4
   4        3          1           8
   5        3          3           8   9  10
   6        3          1           9
   7        3          2           8  10
   8        3          1          11
   9        3          1          11
  10        3          1          11
  11        1          0        
************************************************************************
REQUESTS/DURATIONS:
jobnr. mode duration  R 1  R 2  R 3  R 4  E(W 1)  E(W 2)
------------------------------------------------------------------------
  0      1     0       0    0    0    0     0       0
  1      1     3       0    2    8    0     6      24
  2      1     6       5    0    4    0    30      24
  3      1     4       0    9    0    3    36      12
  4      1     6       0    5    0    8    30      48
  5      1     4       9    0    9    0    36      36
  6      1     7       7    0    0    4    49      28
  7      1     1       0    9    0    3     9       3
  8      1     2       9    0    0    8    18      16
  9      1     1       9    0    0    8     9       8
 10      1     3       0    8    5    0    24      15
 11      1     0       0    0    0    0     0       0
************************************************************************
RESOURCEAVAILABILITIES:
  R 1  R 2
   21   84
************************************************************************
RESOURCE LIMITS:
jobnr.  l(R 1)  u(R 1)  l(R 2)  u(R 2)
------------------------------------------------------------------------
  0        0       0       0       0
  1        1       2       4       8
  2        3       5       2       4
  3        5       9       2       3
  4        3       5       4       8
  5        5       9       5       9
  6        4       7       2       4
  7        5       9       2       3
  8        5       9       4       8
  9        5       9       4       8
 10        4       8       3       5
 11        0       0       0       0
************************************************************************
SCENARIOS:
------------------------------------------------------------------------
RESOURCE k = 1
s = 1: (0, 9, 23, 43, 21, 25, 47, 11, 26, 7, 24, 0)
s = 2: (0, 7, 29, 40, 20, 27, 38, 8, 22, 11, 20, 0)
s = 3: (0, 6, 54, 26, 26, 24, 33, 11, 21, 9, 16, 0)
s = 4: (0, 6, 25, 36, 41, 40, 62, 9, 15, 8, 22, 0)
s = 5: (0, 7, 37, 31, 28, 36, 45, 8, 13, 8, 21, 0)
s = 6: (0, 4, 24, 26, 36, 25, 83, 9, 22, 8, 27, 0)
s = 7: (0, 7, 26, 28, 33, 29, 41, 6, 14, 6, 29, 0)
s = 8: (0, 9, 24, 28, 23, 45, 64, 12, 17, 10, 22, 0)
s = 9: (0, 6, 18, 39, 26, 59, 54, 11, 17, 12, 19, 0)
s = 10: (0, 6, 25, 44, 24, 27, 32, 10, 20, 6, 23, 0)
s = 11: (0, 8, 34, 41, 20, 36, 63, 10, 14, 8, 34, 0)
s = 12: (0, 6, 29, 59, 39, 53, 65, 9, 16, 8, 21, 0)
s = 13: (0, 6, 33, 28, 26, 35, 36, 9, 26, 6, 33, 0)
s = 14: (0, 8, 34, 32, 39, 39, 35, 12, 25, 9, 22, 0)
s = 15: (0, 5, 40, 29, 37, 48, 38, 11, 18, 13, 27, 0)
s = 16: (0, 5, 25, 45, 34, 31, 47, 6, 15, 6, 23, 0)
s = 17: (0, 8, 49, 49, 31, 38, 37, 7, 17, 8, 16, 0)
s = 18: (0, 7, 19, 23, 22, 32, 69, 12, 23, 11, 17, 0)
s = 19: (0, 4, 46, 29, 20, 39, 43, 13, 24, 10, 18, 0)
s = 20: (0, 9, 31, 28, 32, 51, 38, 10, 15, 10, 21, 0)
s = 21: (0, 8, 26, 40, 31, 28, 27, 13, 24, 7, 15, 0)
s = 22: (0, 6, 26, 24, 23, 48, 63, 12, 12, 10, 37, 0)
s = 23: (0, 8, 21, 35, 32, 31, 67, 9, 15, 7, 20, 0)
s = 24: (0, 5, 24, 26, 25, 50, 73, 12, 14, 7, 38, 0)
s = 25: (0, 8, 28, 30, 35, 47, 55, 7, 25, 9, 29, 0)
s = 26: (0, 8, 20, 49, 29, 38, 57, 10, 19, 7, 24, 0)
s = 27: (0, 7, 36, 33, 17, 35, 51, 12, 25, 9, 20, 0)
s = 28: (0, 6, 27, 24, 34, 28, 61, 11, 16, 7, 15, 0)
s = 29: (0, 8, 27, 29, 28, 36, 35, 10, 17, 8, 37, 0)
s = 30: (0, 5, 26, 41, 21, 28, 40, 9, 11, 7, 25, 0)
s = 31: (0, 5, 43, 22, 35, 48, 39, 10, 21, 11, 25, 0)
s = 32: (0, 7, 45, 38, 41, 42, 55, 6, 20, 6, 22, 0)
s = 33: (0, 4, 24, 22, 38, 37, 64, 9, 14, 13, 25, 0)
s = 34: (0, 9, 26, 49, 24, 34, 37, 8, 14, 6, 30, 0)
s = 35: (0, 7, 44, 44, 21, 24, 54, 16, 14, 14, 26, 0)
s = 36: (0, 4, 30, 52, 25, 35, 38, 9, 12, 6, 18, 0)
s = 37: (0, 6, 24, 41, 32, 38, 54, 13, 12, 7, 16, 0)
s = 38: (0, 6, 36, 36, 38, 37, 60, 15, 19, 10, 34, 0)
s = 39: (0, 6, 34, 55, 25, 33, 65, 10, 24, 11, 23, 0)
s = 40: (0, 5, 39, 40, 19, 32, 35, 11, 16, 6, 29, 0)
s = 41: (0, 6, 27, 33, 31, 23, 41, 17, 20, 11, 25, 0)
s = 42: (0, 6, 41, 48, 36, 31, 47, 10, 18, 11, 18, 0)
s = 43: (0, 7, 22, 36, 27, 39, 66, 10, 25, 12, 22, 0)
s = 44: (0, 5, 38, 24, 27, 37, 53, 9, 20, 9, 20, 0)
s = 45: (0, 5, 23, 68, 33, 38, 65, 12, 20, 15, 17, 0)
s = 46: (0, 5, 32, 32, 22, 26, 69, 9, 14, 13, 30, 0)
s = 47: (0, 4, 45, 44, 30, 49, 58, 9, 26, 10, 28, 0)
s = 48: (0, 8, 44, 32, 30, 33, 78, 9, 19, 12, 15, 0)
s = 49: (0, 6, 27, 25, 45, 23, 26, 7, 17, 9, 13, 0)
s = 50: (0, 6, 36, 31, 35, 27, 67, 9, 20, 15, 27, 0)
s = 51: (0, 5, 51, 27, 33, 31, 69, 9, 23, 8, 24, 0)
s = 52: (0, 4, 40, 34, 34, 22, 49, 13, 21, 6, 21, 0)
s = 53: (0, 7, 28, 44, 40, 37, 54, 13, 17, 10, 25, 0)
s = 54: (0, 4, 44, 30, 24, 41, 26, 8, 13, 9, 32, 0)
s = 55: (0, 6, 31, 60, 25, 40, 49, 15, 17, 9, 36, 0)
s = 56: (0, 4, 28, 25, 26, 39, 47, 7, 17, 14, 21, 0)
s = 57: (0, 4, 33, 41, 24, 42, 59, 10, 19, 12, 18, 0)
s = 58: (0, 9, 34, 30, 30, 35, 67, 8, 21, 9, 23, 0)
s = 59: (0, 5, 38, 28, 42, 51, 55, 8, 20, 7, 24, 0)
s = 60: (0, 6, 27, 42, 42, 23, 62, 6, 24, 11, 19, 0)
s = 61: (0, 10, 31, 52, 39, 27, 43, 14, 26, 13, 21, 0)
s = 62: (0, 5, 40, 34, 17, 29, 34, 8, 15, 6, 35, 0)
s = 63: (0, 4, 26, 38, 37, 34, 60, 13, 14, 9, 25, 0)
s = 64: (0, 7, 18, 29, 51, 41, 54, 12, 17, 11, 18, 0)
s = 65: (0, 5, 27, 28, 30, 27, 31, 7, 19, 10, 20, 0)
s = 66: (0, 9, 20, 21, 21, 31, 46, 6, 18, 9, 38, 0)
s = 67: (0, 6, 26, 64, 46, 25, 65, 8, 30, 8, 19, 0)
s = 68: (0, 8, 17, 37, 21, 32, 54, 7, 18, 7, 26, 0)
s = 69: (0, 8, 37, 29, 43, 36, 40, 13, 20, 6, 21, 0)
s = 70: (0, 5, 36, 28, 30, 42, 40, 12, 15, 7, 20, 0)
s = 71: (0, 8, 36, 56, 19, 33, 41, 15, 12, 11, 20, 0)
s = 72: (0, 6, 41, 56, 22, 50, 55, 6, 13, 7, 22, 0)
s = 73: (0, 6, 19, 38, 17, 49, 84, 9, 11, 10, 20, 0)
s = 74: (0, 6, 33, 36, 39, 54, 61, 10, 20, 7, 22, 0)
s = 75: (0, 10, 30, 30, 33, 52, 66, 8, 34, 6, 25, 0)
s = 76: (0, 6, 32, 40, 23, 40, 52, 11, 11, 8, 28, 0)
s = 77: (0, 6, 31, 34, 54, 38, 50, 13, 15, 9, 25, 0)
s = 78: (0, 6, 38, 42, 25, 29, 47, 6, 23, 9, 35, 0)
s = 79: (0, 5, 35, 41, 17, 45, 50, 11, 23, 8, 19, 0)
s = 80: (0, 10, 33, 61, 40, 31, 61, 13, 12, 9, 19, 0)
s = 81: (0, 7, 41, 20, 35, 44, 73, 10, 16, 7, 37, 0)
s = 82: (0, 5, 27, 32, 31, 40, 30, 6, 23, 13, 25, 0)
s = 83: (0, 9, 29, 37, 36, 36, 51, 11, 13, 9, 35, 0)
s = 84: (0, 10, 41, 28, 22, 36, 38, 7, 14, 9, 20, 0)
s = 85: (0, 5, 28, 24, 23, 39, 47, 9, 18, 12, 25, 0)
s = 86: (0, 7, 51, 30, 21, 52, 58, 10, 20, 6, 21, 0)
s = 87: (0, 6, 24, 34, 26, 34, 74, 12, 17, 11, 17, 0)
s = 88: (0, 6, 51, 36, 24, 31, 34, 13, 33, 13, 40, 0)
s = 89: (0, 5, 23, 33, 59, 29, 54, 16, 22, 10, 16, 0)
s = 90: (0, 6, 50, 39, 27, 41, 38, 7, 17, 7, 25, 0)
s = 91: (0, 8, 40, 37, 30, 32, 67, 7, 23, 10, 16, 0)
s = 92: (0, 5, 29, 31, 20, 46, 32, 9, 24, 8, 21, 0)
s = 93: (0, 7, 31, 25, 29, 34, 80, 13, 16, 8, 16, 0)
s = 94: (0, 9, 20, 25, 34, 29, 60, 9, 20, 14, 13, 0)
s = 95: (0, 8, 27, 49, 35, 33, 53, 12, 26, 9, 24, 0)
s = 96: (0, 5, 22, 29, 34, 31, 69, 7, 18, 8, 23, 0)
s = 97: (0, 5, 39, 52, 25, 44, 41, 9, 11, 11, 25, 0)
s = 98: (0, 8, 38, 40, 38, 40, 48, 10, 24, 7, 32, 0)
s = 99: (0, 6, 35, 33, 32, 24, 44, 10, 19, 7, 27, 0)
s = 100: (0, 9, 52, 31, 34, 58, 48, 9, 13, 11, 18, 0)
s = 101: (0, 7, 32, 28, 20, 31, 71, 17, 24, 8, 33, 0)
s = 102: (0, 5, 26, 47, 29, 40, 39, 13, 22, 6, 22, 0)
s = 103: (0, 6, 31, 25, 26, 22, 70, 8, 25, 11, 26, 0)
s = 104: (0, 8, 27, 50, 38, 41, 64, 8, 22, 11, 35, 0)
s = 105: (0, 9, 36, 30, 27, 36, 51, 8, 15, 8, 17, 0)
s = 106: (0, 5, 25, 31, 35, 45, 37, 6, 11, 14, 25, 0)
s = 107: (0, 6, 16, 59, 30, 26, 57, 6, 16, 8, 22, 0)
s = 108: (0, 7, 36, 23, 43, 26, 51, 8, 13, 7, 36, 0)
s = 109: (0, 7, 17, 20, 44, 30, 51, 13, 23, 11, 24, 0)
s = 110: (0, 6, 25, 51, 31, 51, 65, 7, 16, 11, 30, 0)
s = 111: (0, 5, 28, 41, 35, 21, 34, 9, 15, 9, 28, 0)
s = 112: (0, 6, 27, 35, 26, 25, 56, 9, 24, 14, 26, 0)
s = 113: (0, 4, 23, 46, 26, 26, 59, 12, 19, 10, 23, 0)
s = 114: (0, 8, 28, 40, 30, 39, 61, 7, 13, 6, 31, 0)
s = 115: (0, 4, 28, 29, 30, 29, 30, 8, 15, 15, 17, 0)
s = 116: (0, 6, 41, 19, 16, 29, 36, 9, 17, 14, 16, 0)
s = 117: (0, 7, 23, 27, 32, 45, 46, 11, 17, 9, 23, 0)
s = 118: (0, 6, 23, 37, 38, 39, 68, 10, 15, 7, 14, 0)
s = 119: (0, 7, 19, 41, 23, 37, 66, 7, 31, 7, 25, 0)
s = 120: (0, 6, 17, 25, 36, 40, 51, 11, 11, 10, 28, 0)
s = 121: (0, 5, 30, 40, 18, 21, 48, 12, 10, 8, 28, 0)
s = 122: (0, 5, 36, 26, 28, 63, 33, 9, 17, 9, 25, 0)
s = 123: (0, 6, 31, 34, 43, 27, 35, 10, 22, 12, 27, 0)
s = 124: (0, 6, 22, 42, 54, 35, 43, 15, 20, 10, 21, 0)
s = 125: (0, 8, 37, 39, 28, 35, 61, 9, 17, 10, 25, 0)
s = 126: (0, 4, 37, 38, 22, 56, 69, 6, 17, 6, 28, 0)
s = 127: (0, 8, 45, 22, 30, 38, 78, 7, 21, 11, 22, 0)
s = 128: (0, 5, 32, 27, 25, 36, 41, 9, 29, 11, 18, 0)
s = 129: (0, 7, 33, 25, 37, 50, 49, 9, 16, 11, 21, 0)
s = 130: (0, 5, 38, 30, 18, 33, 73, 14, 24, 8, 28, 0)
s = 131: (0, 7, 27, 20, 26, 35, 55, 12, 16, 12, 24, 0)
s = 132: (0, 4, 24, 56, 18, 30, 68, 6, 26, 8, 36, 0)
s = 133: (0, 5, 30, 37, 29, 23, 57, 12, 15, 9, 31, 0)
s = 134: (0, 9, 33, 28, 21, 26, 33, 8, 16, 6, 34, 0)
s = 135: (0, 9, 51, 20, 32, 29, 49, 10, 18, 7, 22, 0)
s = 136: (0, 4, 33, 27, 31, 64, 86, 8, 23, 9, 23, 0)
s = 137: (0, 8, 31, 41, 33, 22, 55, 8, 19, 15, 22, 0)
s = 138: (0, 7, 32, 36, 24, 25, 35, 7, 10, 9, 33, 0)
s = 139: (0, 5, 25, 52, 33, 36, 59, 6, 13, 15, 21, 0)
s = 140: (0, 8, 17, 27, 25, 36, 46, 14, 13, 9, 15, 0)
s = 141: (0, 6, 26, 33, 39, 30, 51, 11, 25, 10, 18, 0)
s = 142: (0, 10, 44, 44, 19, 31, 53, 10, 20, 9, 25, 0)
s = 143: (0, 8, 26, 40, 23, 44, 28, 8, 19, 6, 15, 0)
s = 144: (0, 8, 25, 36, 26, 29, 54, 7, 17, 7, 18, 0)
s = 145: (0, 9, 25, 34, 50, 40, 38, 10, 19, 11, 25, 0)
s = 146: (0, 6, 30, 54, 30, 26, 56, 9, 21, 15, 17, 0)
s = 147: (0, 5, 24, 45, 30, 34, 34, 8, 16, 7, 15, 0)
s = 148: (0, 4, 29, 34, 59, 46, 41, 7, 16, 5, 26, 0)
s = 149: (0, 6, 26, 44, 33, 25, 59, 8, 16, 8, 26, 0)
s = 150: (0, 5, 25, 30, 20, 27, 41, 8, 26, 13, 24, 0)
s = 151: (0, 7, 29, 32, 34, 33, 42, 12, 13, 11, 30, 0)
s = 152: (0, 7, 42, 33, 22, 27, 61, 10, 21, 12, 19, 0)
s = 153: (0, 9, 35, 20, 25, 28, 60, 11, 14, 13, 22, 0)
s = 154: (0, 5, 17, 53, 26, 25, 33, 7, 14, 10, 18, 0)
s = 155: (0, 7, 33, 27, 26, 26, 47, 12, 23, 10, 16, 0)
s = 156: (0, 7, 34, 30, 41, 32, 95, 10, 23, 19, 14, 0)
s = 157: (0, 7, 18, 32, 19, 39, 62, 7, 16, 8, 17, 0)
s = 158: (0, 7, 35, 30, 25, 54, 44, 8, 21, 7, 26, 0)
s = 159: (0, 5, 26, 35, 30, 34, 44, 8, 15, 9, 23, 0)
s = 160: (0, 7, 44, 40, 31, 41, 39, 15, 18, 12, 16, 0)
s = 161: (0, 7, 31, 52, 31, 25, 56, 9, 18, 7, 29, 0)
s = 162: (0, 4, 21, 30, 29, 63, 74, 7, 14, 13, 22, 0)
s = 163: (0, 4, 42, 51, 31, 59, 41, 9, 13, 11, 30, 0)
s = 164: (0, 7, 27, 30, 32, 56, 50, 16, 16, 6, 36, 0)
s = 165: (0, 7, 32, 57, 27, 27, 53, 9, 14, 10, 29, 0)
s = 166: (0, 6, 22, 34, 33, 53, 26, 9, 18, 6, 26, 0)
s = 167: (0, 7, 21, 34, 34, 39, 45, 12, 25, 11, 25, 0)
s = 168: (0, 8, 35, 23, 34, 28, 45, 11, 24, 9, 26, 0)
s = 169: (0, 6, 36, 28, 28, 30, 63, 13, 22, 16, 17, 0)
s = 170: (0, 5, 30, 23, 22, 44, 61, 11, 23, 9, 22, 0)
s = 171: (0, 5, 22, 44, 24, 22, 41, 12, 16, 14, 20, 0)
s = 172: (0, 8, 23, 32, 28, 53, 80, 9, 23, 7, 26, 0)
s = 173: (0, 8, 25, 38, 29, 25, 35, 10, 24, 7, 23, 0)
s = 174: (0, 6, 34, 35, 25, 41, 90, 11, 14, 8, 20, 0)
s = 175: (0, 4, 28, 45, 32, 45, 38, 7, 20, 10, 20, 0)
s = 176: (0, 5, 25, 56, 38, 44, 44, 6, 24, 7, 31, 0)
s = 177: (0, 7, 23, 43, 19, 23, 51, 15, 16, 10, 20, 0)
s = 178: (0, 6, 34, 27, 31, 42, 68, 8, 14, 11, 19, 0)
s = 179: (0, 7, 24, 43, 36, 42, 32, 8, 25, 7, 26, 0)
s = 180: (0, 6, 26, 37, 23, 40, 41, 8, 16, 12, 22, 0)
s = 181: (0, 6, 24, 43, 21, 39, 55, 8, 16, 9, 36, 0)
s = 182: (0, 5, 25, 30, 24, 32, 30, 8, 29, 6, 29, 0)
s = 183: (0, 6, 26, 35, 32, 29, 48, 15, 16, 12, 27, 0)
s = 184: (0, 5, 19, 34, 31, 40, 58, 11, 28, 10, 18, 0)
s = 185: (0, 7, 25, 45, 31, 40, 39, 10, 15, 9, 33, 0)
s = 186: (0, 8, 38, 31, 32, 29, 36, 14, 14, 6, 28, 0)
s = 187: (0, 6, 28, 50, 28, 37, 60, 8, 16, 11, 18, 0)
s = 188: (0, 9, 26, 28, 33, 36, 42, 8, 22, 7, 21, 0)
s = 189: (0, 6, 22, 28, 20, 30, 37, 6, 15, 9, 25, 0)
s = 190: (0, 7, 31, 34, 20, 40, 60, 6, 18, 6, 15, 0)
s = 191: (0, 8, 22, 27, 23, 43, 58, 6, 12, 11, 35, 0)
s = 192: (0, 9, 29, 64, 44, 47, 54, 8, 11, 7, 24, 0)
s = 193: (0, 9, 32, 50, 18, 31, 29, 9, 11, 8, 23, 0)
s = 194: (0, 9, 17, 44, 19, 37, 45, 5, 21, 10, 45, 0)
s = 195: (0, 6, 37, 35, 24, 43, 70, 11, 15, 10, 16, 0)
s = 196: (0, 5, 34, 43, 42, 24, 56, 9, 23, 9, 25, 0)
s = 197: (0, 5, 18, 29, 27, 35, 49, 11, 17, 9, 33, 0)
s = 198: (0, 8, 28, 46, 22, 43, 47, 10, 20, 10, 24, 0)
s = 199: (0, 5, 46, 39, 29, 38, 48, 9, 24, 8, 16, 0)
s = 200: (0, 5, 27, 34, 29, 35, 59, 9, 11, 9, 40, 0)
------------------------------------------------------------------------
RESOURCE k = 2
s = 1: (0, 36, 18, 15, 33, 25, 27, 4, 23, 7, 15, 0)
s = 2: (0, 28, 23, 14, 32, 27, 22, 3, 19, 10, 13, 0)
s = 3: (0, 24, 44, 9, 42, 24, 19, 4, 19, 8, 10, 0)
s = 4: (0, 21, 20, 12, 65, 40, 36, 3, 13, 7, 14, 0)
s = 5: (0, 28, 30, 11, 44, 36, 26, 3, 11, 7, 13, 0)
s = 6: (0, 13, 19, 9, 58, 25, 48, 3, 20, 8, 17, 0)
s = 7: (0, 27, 21, 10, 52, 29, 24, 2, 12, 6, 18, 0)
s = 8: (0, 35, 20, 10, 36, 45, 37, 4, 15, 9, 14, 0)
s = 9: (0, 22, 14, 13, 42, 59, 31, 4, 16, 10, 12, 0)
s = 10: (0, 24, 20, 15, 39, 27, 19, 4, 18, 5, 15, 0)
s = 11: (0, 31, 27, 14, 31, 36, 36, 4, 12, 7, 22, 0)
s = 12: (0, 24, 23, 20, 62, 53, 37, 3, 14, 7, 13, 0)
s = 13: (0, 21, 27, 10, 42, 35, 21, 3, 23, 5, 21, 0)
s = 14: (0, 29, 27, 11, 63, 39, 20, 4, 22, 8, 14, 0)
s = 15: (0, 17, 32, 10, 59, 48, 22, 4, 16, 11, 17, 0)
s = 16: (0, 20, 20, 15, 54, 31, 27, 2, 13, 5, 15, 0)
s = 17: (0, 32, 39, 17, 49, 38, 21, 3, 15, 7, 10, 0)
s = 18: (0, 28, 15, 8, 34, 32, 40, 4, 20, 9, 11, 0)
s = 19: (0, 14, 37, 10, 32, 39, 25, 5, 21, 9, 12, 0)
s = 20: (0, 34, 25, 10, 50, 51, 22, 4, 14, 9, 13, 0)
s = 21: (0, 29, 21, 14, 49, 28, 16, 5, 21, 6, 9, 0)
s = 22: (0, 22, 21, 8, 37, 48, 36, 4, 11, 9, 23, 0)
s = 23: (0, 29, 17, 12, 52, 31, 38, 3, 14, 6, 13, 0)
s = 24: (0, 17, 19, 9, 39, 50, 42, 4, 13, 6, 24, 0)
s = 25: (0, 30, 23, 10, 55, 47, 32, 3, 22, 8, 19, 0)
s = 26: (0, 30, 16, 17, 47, 38, 33, 4, 17, 7, 15, 0)
s = 27: (0, 27, 29, 11, 27, 35, 29, 4, 22, 8, 13, 0)
s = 28: (0, 22, 22, 8, 53, 28, 35, 4, 14, 6, 9, 0)
s = 29: (0, 30, 21, 10, 44, 36, 20, 4, 16, 7, 24, 0)
s = 30: (0, 20, 21, 14, 33, 28, 23, 3, 10, 6, 16, 0)
s = 31: (0, 17, 34, 8, 56, 48, 22, 4, 19, 10, 16, 0)
s = 32: (0, 28, 36, 13, 65, 42, 32, 2, 18, 5, 14, 0)
s = 33: (0, 16, 19, 8, 61, 37, 37, 3, 12, 12, 16, 0)
s = 34: (0, 34, 21, 17, 38, 34, 22, 3, 13, 5, 19, 0)
s = 35: (0, 27, 36, 15, 33, 24, 31, 6, 12, 13, 16, 0)
s = 36: (0, 16, 24, 18, 40, 35, 22, 3, 10, 5, 12, 0)
s = 37: (0, 23, 20, 14, 52, 38, 31, 5, 11, 6, 10, 0)
s = 38: (0, 24, 29, 12, 61, 37, 35, 5, 17, 9, 22, 0)
s = 39: (0, 21, 27, 19, 39, 33, 37, 4, 22, 10, 15, 0)
s = 40: (0, 18, 31, 14, 30, 32, 20, 4, 15, 5, 18, 0)
s = 41: (0, 21, 22, 11, 50, 23, 23, 6, 18, 10, 16, 0)
s = 42: (0, 23, 33, 16, 57, 31, 27, 4, 16, 9, 12, 0)
s = 43: (0, 28, 18, 12, 43, 39, 38, 4, 22, 11, 14, 0)
s = 44: (0, 19, 30, 8, 43, 37, 31, 3, 18, 8, 13, 0)
s = 45: (0, 18, 18, 23, 52, 38, 37, 4, 18, 13, 11, 0)
s = 46: (0, 20, 26, 11, 35, 26, 40, 3, 12, 11, 19, 0)
s = 47: (0, 14, 36, 15, 47, 49, 33, 3, 23, 9, 18, 0)
s = 48: (0, 31, 36, 11, 47, 33, 45, 3, 17, 11, 9, 0)
s = 49: (0, 22, 22, 9, 71, 23, 15, 3, 15, 8, 8, 0)
s = 50: (0, 22, 29, 11, 56, 27, 39, 3, 17, 13, 17, 0)
s = 51: (0, 20, 41, 9, 52, 31, 40, 3, 21, 7, 15, 0)
s = 52: (0, 14, 32, 12, 55, 22, 28, 5, 19, 6, 13, 0)
s = 53: (0, 25, 23, 15, 63, 37, 31, 5, 15, 9, 16, 0)
s = 54: (0, 14, 35, 10, 38, 41, 15, 3, 11, 8, 20, 0)
s = 55: (0, 21, 25, 20, 39, 40, 28, 5, 15, 8, 23, 0)
s = 56: (0, 14, 23, 9, 42, 39, 27, 3, 15, 13, 13, 0)
s = 57: (0, 15, 26, 14, 39, 42, 34, 4, 17, 11, 11, 0)
s = 58: (0, 34, 27, 10, 47, 35, 39, 3, 19, 8, 15, 0)
s = 59: (0, 17, 31, 10, 67, 51, 31, 3, 18, 6, 15, 0)
s = 60: (0, 21, 22, 14, 66, 23, 36, 2, 21, 10, 12, 0)
s = 61: (0, 39, 25, 18, 62, 27, 25, 5, 23, 11, 13, 0)
s = 62: (0, 17, 32, 12, 26, 29, 20, 3, 13, 5, 22, 0)
s = 63: (0, 14, 21, 13, 59, 34, 34, 5, 12, 8, 16, 0)
s = 64: (0, 27, 14, 10, 81, 41, 31, 4, 15, 10, 11, 0)
s = 65: (0, 19, 22, 10, 48, 27, 18, 3, 17, 9, 13, 0)
s = 66: (0, 33, 16, 7, 33, 31, 26, 2, 16, 8, 24, 0)
s = 67: (0, 23, 21, 22, 73, 25, 38, 3, 26, 7, 12, 0)
s = 68: (0, 31, 14, 13, 33, 32, 31, 3, 16, 6, 16, 0)
s = 69: (0, 29, 30, 10, 68, 36, 23, 5, 18, 5, 13, 0)
s = 70: (0, 20, 29, 10, 47, 42, 23, 4, 14, 6, 13, 0)
s = 71: (0, 29, 29, 19, 31, 33, 24, 5, 11, 10, 13, 0)
s = 72: (0, 21, 33, 19, 36, 50, 31, 2, 11, 7, 14, 0)
s = 73: (0, 23, 15, 13, 28, 49, 48, 3, 10, 9, 13, 0)
s = 74: (0, 21, 27, 12, 63, 54, 35, 4, 18, 7, 14, 0)
s = 75: (0, 38, 24, 10, 52, 52, 38, 3, 30, 6, 16, 0)
s = 76: (0, 22, 25, 14, 37, 40, 30, 4, 10, 7, 17, 0)
s = 77: (0, 24, 25, 12, 86, 38, 29, 5, 14, 8, 16, 0)
s = 78: (0, 24, 30, 14, 40, 29, 27, 2, 20, 8, 22, 0)
s = 79: (0, 18, 28, 14, 26, 45, 29, 4, 21, 7, 12, 0)
s = 80: (0, 40, 27, 21, 64, 31, 35, 5, 10, 8, 12, 0)
s = 81: (0, 26, 33, 7, 55, 44, 42, 4, 14, 6, 23, 0)
s = 82: (0, 20, 22, 11, 49, 40, 17, 2, 20, 11, 16, 0)
s = 83: (0, 34, 24, 13, 57, 36, 29, 4, 11, 8, 22, 0)
s = 84: (0, 37, 33, 10, 35, 36, 22, 3, 13, 8, 13, 0)
s = 85: (0, 17, 22, 8, 36, 39, 27, 3, 16, 11, 16, 0)
s = 86: (0, 26, 41, 10, 33, 52, 33, 4, 18, 5, 13, 0)
s = 87: (0, 23, 19, 12, 41, 34, 43, 4, 15, 10, 11, 0)
s = 88: (0, 22, 41, 12, 38, 31, 20, 5, 29, 12, 25, 0)
s = 89: (0, 17, 19, 11, 95, 29, 31, 6, 20, 9, 10, 0)
s = 90: (0, 24, 40, 13, 43, 41, 22, 3, 15, 6, 16, 0)
s = 91: (0, 29, 32, 13, 48, 32, 39, 3, 21, 9, 10, 0)
s = 92: (0, 20, 23, 11, 31, 46, 19, 3, 21, 8, 13, 0)
s = 93: (0, 26, 25, 9, 45, 34, 46, 5, 14, 7, 10, 0)
s = 94: (0, 33, 16, 9, 54, 29, 35, 3, 18, 12, 8, 0)
s = 95: (0, 31, 22, 17, 56, 33, 31, 4, 23, 8, 15, 0)
s = 96: (0, 17, 18, 10, 54, 31, 40, 3, 16, 7, 15, 0)
s = 97: (0, 20, 31, 18, 40, 44, 24, 3, 10, 10, 16, 0)
s = 98: (0, 30, 30, 14, 61, 40, 27, 4, 21, 7, 20, 0)
s = 99: (0, 22, 28, 11, 50, 24, 25, 4, 17, 6, 17, 0)
s = 100: (0, 33, 41, 11, 54, 58, 28, 3, 12, 10, 11, 0)
s = 101: (0, 26, 26, 10, 32, 31, 41, 6, 21, 7, 21, 0)
s = 102: (0, 19, 21, 16, 47, 40, 22, 5, 19, 6, 14, 0)
s = 103: (0, 23, 25, 9, 42, 22, 40, 3, 22, 10, 16, 0)
s = 104: (0, 32, 21, 17, 60, 41, 37, 3, 20, 10, 22, 0)
s = 105: (0, 34, 29, 10, 44, 36, 29, 3, 13, 7, 11, 0)
s = 106: (0, 18, 20, 11, 56, 45, 21, 2, 10, 12, 16, 0)
s = 107: (0, 22, 13, 20, 48, 26, 33, 2, 14, 7, 14, 0)
s = 108: (0, 26, 29, 8, 69, 26, 30, 3, 12, 6, 23, 0)
s = 109: (0, 27, 13, 7, 70, 30, 29, 5, 20, 10, 15, 0)
s = 110: (0, 21, 20, 17, 50, 51, 37, 3, 14, 10, 19, 0)
s = 111: (0, 19, 22, 14, 56, 21, 20, 3, 13, 8, 18, 0)
s = 112: (0, 23, 22, 12, 41, 25, 32, 3, 21, 12, 16, 0)
s = 113: (0, 14, 18, 16, 42, 26, 34, 4, 17, 9, 14, 0)
s = 114: (0, 29, 23, 14, 47, 39, 35, 3, 11, 5, 20, 0)
s = 115: (0, 15, 22, 10, 48, 29, 17, 3, 13, 13, 11, 0)
s = 116: (0, 21, 33, 7, 25, 29, 21, 3, 15, 13, 10, 0)
s = 117: (0, 26, 18, 9, 50, 45, 26, 4, 16, 8, 15, 0)
s = 118: (0, 21, 19, 13, 60, 39, 39, 4, 13, 6, 9, 0)
s = 119: (0, 26, 16, 14, 36, 37, 38, 3, 27, 6, 16, 0)
s = 120: (0, 21, 14, 9, 57, 40, 29, 4, 10, 9, 18, 0)
s = 121: (0, 19, 24, 14, 28, 21, 27, 4, 9, 7, 17, 0)
s = 122: (0, 20, 29, 9, 44, 63, 19, 3, 16, 8, 16, 0)
s = 123: (0, 23, 25, 12, 68, 27, 20, 4, 19, 11, 17, 0)
s = 124: (0, 22, 18, 14, 86, 35, 25, 5, 18, 9, 13, 0)
s = 125: (0, 29, 30, 13, 44, 35, 35, 3, 16, 9, 16, 0)
s = 126: (0, 13, 29, 13, 35, 56, 40, 2, 15, 5, 18, 0)
s = 127: (0, 31, 36, 8, 48, 38, 45, 3, 19, 10, 14, 0)
s = 128: (0, 19, 26, 9, 39, 36, 24, 3, 26, 10, 12, 0)
s = 129: (0, 25, 26, 9, 58, 50, 28, 3, 15, 10, 13, 0)
s = 130: (0, 20, 30, 10, 29, 33, 42, 5, 21, 7, 17, 0)
s = 131: (0, 25, 22, 7, 42, 35, 32, 4, 14, 11, 15, 0)
s = 132: (0, 14, 19, 19, 29, 30, 39, 2, 23, 7, 23, 0)
s = 133: (0, 18, 24, 13, 47, 23, 33, 4, 14, 8, 20, 0)
s = 134: (0, 36, 27, 10, 33, 26, 19, 3, 15, 5, 21, 0)
s = 135: (0, 36, 41, 7, 51, 29, 28, 4, 16, 6, 14, 0)
s = 136: (0, 15, 27, 9, 49, 64, 49, 3, 21, 8, 15, 0)
s = 137: (0, 31, 25, 14, 52, 22, 32, 3, 17, 13, 14, 0)
s = 138: (0, 27, 25, 12, 38, 25, 20, 3, 9, 8, 21, 0)
s = 139: (0, 19, 20, 18, 53, 36, 34, 2, 11, 13, 13, 0)
s = 140: (0, 32, 13, 9, 40, 36, 27, 5, 12, 8, 9, 0)
s = 141: (0, 24, 21, 11, 62, 30, 30, 4, 23, 9, 11, 0)
s = 142: (0, 39, 35, 15, 30, 31, 31, 4, 18, 8, 16, 0)
s = 143: (0, 29, 21, 14, 36, 44, 16, 3, 17, 6, 10, 0)
s = 144: (0, 29, 20, 12, 42, 29, 31, 3, 15, 6, 12, 0)
s = 145: (0, 33, 20, 12, 79, 40, 22, 4, 17, 10, 16, 0)
s = 146: (0, 23, 24, 18, 48, 26, 32, 3, 19, 13, 11, 0)
s = 147: (0, 18, 19, 15, 48, 34, 20, 3, 14, 6, 10, 0)
s = 148: (0, 15, 23, 12, 94, 46, 24, 3, 14, 5, 16, 0)
s = 149: (0, 21, 21, 15, 52, 25, 34, 3, 14, 7, 16, 0)
s = 150: (0, 19, 20, 10, 32, 27, 24, 3, 23, 12, 15, 0)
s = 151: (0, 28, 24, 11, 54, 33, 24, 4, 12, 10, 19, 0)
s = 152: (0, 28, 34, 11, 36, 27, 35, 4, 19, 11, 12, 0)
s = 153: (0, 34, 28, 7, 40, 28, 34, 4, 12, 12, 14, 0)
s = 154: (0, 19, 14, 18, 41, 25, 19, 3, 12, 9, 11, 0)
s = 155: (0, 26, 26, 9, 41, 26, 27, 4, 20, 9, 10, 0)
s = 156: (0, 25, 27, 10, 65, 32, 54, 4, 20, 17, 9, 0)
s = 157: (0, 26, 14, 11, 31, 39, 35, 3, 15, 7, 11, 0)
s = 158: (0, 26, 28, 10, 40, 54, 25, 3, 19, 6, 16, 0)
s = 159: (0, 17, 21, 12, 48, 34, 25, 3, 13, 8, 15, 0)
s = 160: (0, 26, 35, 14, 50, 41, 22, 5, 16, 11, 10, 0)
s = 161: (0, 26, 25, 18, 50, 25, 32, 3, 16, 6, 19, 0)
s = 162: (0, 15, 17, 10, 47, 63, 42, 3, 12, 12, 14, 0)
s = 163: (0, 13, 34, 17, 49, 59, 23, 3, 12, 10, 19, 0)
s = 164: (0, 26, 21, 10, 51, 56, 29, 6, 14, 5, 23, 0)
s = 165: (0, 27, 26, 19, 43, 27, 31, 3, 12, 9, 19, 0)
s = 166: (0, 22, 18, 12, 52, 53, 15, 3, 16, 5, 16, 0)
s = 167: (0, 26, 17, 12, 54, 39, 26, 4, 22, 10, 16, 0)
s = 168: (0, 30, 28, 8, 54, 28, 26, 4, 21, 8, 16, 0)
s = 169: (0, 24, 29, 10, 44, 30, 36, 5, 20, 14, 11, 0)
s = 170: (0, 19, 24, 8, 35, 44, 35, 4, 20, 8, 14, 0)
s = 171: (0, 20, 18, 15, 39, 22, 24, 4, 14, 13, 13, 0)
s = 172: (0, 29, 19, 11, 44, 53, 46, 3, 20, 7, 16, 0)
s = 173: (0, 32, 20, 13, 46, 25, 20, 4, 22, 7, 15, 0)
s = 174: (0, 23, 27, 12, 40, 41, 51, 4, 13, 7, 13, 0)
s = 175: (0, 14, 22, 15, 51, 45, 22, 3, 18, 9, 13, 0)
s = 176: (0, 19, 20, 19, 61, 44, 25, 2, 21, 6, 19, 0)
s = 177: (0, 25, 19, 15, 29, 23, 30, 5, 14, 9, 13, 0)
s = 178: (0, 21, 27, 9, 49, 42, 39, 3, 12, 10, 12, 0)
s = 179: (0, 25, 20, 15, 57, 42, 18, 3, 22, 6, 17, 0)
s = 180: (0, 22, 21, 13, 37, 40, 24, 3, 15, 11, 14, 0)
s = 181: (0, 22, 20, 15, 34, 39, 32, 3, 14, 8, 23, 0)
s = 182: (0, 19, 20, 10, 38, 32, 18, 3, 26, 6, 18, 0)
s = 183: (0, 23, 21, 12, 51, 29, 28, 5, 14, 10, 17, 0)
s = 184: (0, 18, 15, 12, 49, 40, 33, 4, 25, 9, 12, 0)
s = 185: (0, 26, 20, 15, 49, 40, 22, 4, 13, 8, 21, 0)
s = 186: (0, 30, 30, 11, 51, 29, 21, 5, 13, 5, 18, 0)
s = 187: (0, 23, 22, 17, 45, 37, 35, 3, 14, 10, 11, 0)
s = 188: (0, 33, 21, 10, 52, 36, 24, 3, 20, 6, 13, 0)
s = 189: (0, 24, 18, 10, 32, 30, 21, 2, 14, 8, 16, 0)
s = 190: (0, 27, 25, 12, 32, 40, 35, 2, 16, 5, 10, 0)
s = 191: (0, 32, 18, 9, 36, 43, 33, 2, 11, 10, 22, 0)
s = 192: (0, 35, 23, 22, 71, 47, 31, 3, 10, 6, 15, 0)
s = 193: (0, 35, 26, 17, 29, 31, 17, 3, 10, 7, 15, 0)
s = 194: (0, 33, 13, 15, 30, 37, 26, 2, 19, 9, 28, 0)
s = 195: (0, 21, 29, 12, 39, 43, 40, 4, 14, 9, 10, 0)
s = 196: (0, 18, 27, 15, 67, 24, 32, 3, 20, 8, 16, 0)
s = 197: (0, 20, 15, 10, 43, 35, 28, 4, 15, 8, 21, 0)
s = 198: (0, 31, 23, 16, 35, 43, 27, 4, 18, 9, 15, 0)
s = 199: (0, 17, 37, 13, 46, 38, 28, 3, 21, 7, 10, 0)
s = 200: (0, 19, 22, 12, 46, 35, 34, 3, 10, 8, 25, 0)
************************************************************************
ES/LS-VALUES:
jobnr.   ES(i)    LS(i)
------------------------------------------------------------------------
  0        0        0
  1        0       55
  2        0       48
  3        0       52
  4        7       60
  5       11       62
  6       11       59
  7       11       68
  8       18       72
  9       24       73
 10       18       70
 11       26       76
************************************************************************
BIG-M-VALUES:
M1 = 51, M2 = 160
************************************************************************
